
 velocities (vx,vy,vz) for set NALL and time  0.1000000E+01

         1  1.000000E+00  0.000000E+00  0.000000E+00
         2  8.075001E-01 -1.423661E-17  0.000000E+00
         3  8.075001E-01 -6.315028E-17  0.000000E+00
         4  1.000000E+00  0.000000E+00  0.000000E+00
         5  1.000000E+00  0.000000E+00  0.000000E+00
         6  8.075001E-01 -1.423661E-17  0.000000E+00
         7  8.075001E-01 -6.315028E-17  0.000000E+00
         8  1.000000E+00  0.000000E+00  0.000000E+00
         9  6.300002E-01 -9.442816E-17  0.000000E+00
        10  6.300002E-01  4.521640E-17  0.000000E+00
        11  6.300002E-01 -9.442816E-17  0.000000E+00
        12  6.300002E-01  4.521640E-17  0.000000E+00
        13  4.675003E-01 -1.525166E-16  0.000000E+00
        14  4.675003E-01  1.329448E-16  0.000000E+00
        15  4.675003E-01 -1.525166E-16  0.000000E+00
        16  4.675003E-01  1.329448E-16  0.000000E+00
        17  3.200004E-01 -2.098526E-16  0.000000E+00
        18  3.200004E-01  1.227522E-16  0.000000E+00
        19  3.200004E-01 -2.098526E-16  0.000000E+00
        20  3.200004E-01  1.227522E-16  0.000000E+00
        21  1.875005E-01 -1.176284E-16  0.000000E+00
        22  1.875005E-01  2.821296E-17  0.000000E+00
        23  1.875005E-01 -1.176284E-16  0.000000E+00
        24  1.875005E-01  2.821296E-17  0.000000E+00
        25  7.000056E-02 -1.111547E-16  0.000000E+00
        26  7.000056E-02 -3.663198E-17  0.000000E+00
        27  7.000056E-02 -1.111547E-16  0.000000E+00
        28  7.000056E-02 -3.663198E-17  0.000000E+00
        29 -3.249938E-02 -7.602407E-17  0.000000E+00
        30 -3.249938E-02 -7.861354E-17  0.000000E+00
        31 -3.249938E-02 -7.602407E-17  0.000000E+00
        32 -3.249938E-02 -7.861354E-17  0.000000E+00
        33 -1.199993E-01 -9.027890E-17  0.000000E+00
        34 -1.199993E-01 -4.343900E-17  0.000000E+00
        35 -1.199993E-01 -9.027890E-17  0.000000E+00
        36 -1.199993E-01 -4.343900E-17  0.000000E+00
        37 -1.924993E-01 -7.089687E-17  0.000000E+00
        38 -1.924993E-01 -4.131397E-17  0.000000E+00
        39 -1.924993E-01 -7.089687E-17  0.000000E+00
        40 -1.924993E-01 -4.131397E-17  0.000000E+00
        41 -2.499993E-01 -6.853049E-17  0.000000E+00
        42 -2.499993E-01 -4.966947E-17  0.000000E+00
        43 -2.499993E-01 -6.853049E-17  0.000000E+00
        44 -2.499993E-01 -4.966947E-17  0.000000E+00
        45 -2.924993E-01 -5.597947E-17  0.000000E+00
        46 -2.924993E-01 -5.679830E-17  0.000000E+00
        47 -2.924993E-01 -5.597947E-17  0.000000E+00
        48 -2.924993E-01 -5.679830E-17  0.000000E+00
        49 -3.199993E-01 -5.111178E-17  0.000000E+00
        50 -3.199993E-01 -4.194377E-17  0.000000E+00
        51 -3.199993E-01 -5.111178E-17  0.000000E+00
        52 -3.199993E-01 -4.194377E-17  0.000000E+00
        53 -3.324994E-01 -3.656295E-17  0.000000E+00
        54 -3.324994E-01 -2.906996E-17  0.000000E+00
        55 -3.324994E-01 -3.656295E-17  0.000000E+00
        56 -3.324994E-01 -2.906996E-17  0.000000E+00
        57 -3.299994E-01 -2.116701E-17  0.000000E+00
        58 -3.299994E-01 -2.072611E-17  0.000000E+00
        59 -3.299994E-01 -2.116701E-17  0.000000E+00
        60 -3.299994E-01 -2.072611E-17  0.000000E+00
        61 -3.124995E-01 -9.223411E-18  0.000000E+00
        62 -3.124995E-01 -7.995380E-18  0.000000E+00
        63 -3.124995E-01 -9.223411E-18  0.000000E+00
        64 -3.124995E-01 -7.995380E-18  0.000000E+00
        65 -2.799996E-01  3.164131E-18  0.000000E+00
        66 -2.799996E-01  3.605345E-18  0.000000E+00
        67 -2.799996E-01  3.164131E-18  0.000000E+00
        68 -2.799996E-01  3.605345E-18  0.000000E+00
        69 -2.324997E-01  7.667551E-18  0.000000E+00
        70 -2.324997E-01  6.329586E-18  0.000000E+00
        71 -2.324997E-01  7.667551E-18  0.000000E+00
        72 -2.324997E-01  6.329586E-18  0.000000E+00
        73 -1.699998E-01  1.187294E-17  0.000000E+00
        74 -1.699998E-01  7.845395E-18  0.000000E+00
        75 -1.699998E-01  1.187294E-17  0.000000E+00
        76 -1.699998E-01  7.845395E-18  0.000000E+00
        77 -9.249989E-02  6.512496E-18  0.000000E+00
        78 -9.249989E-02  1.928572E-18  0.000000E+00
        79 -9.249989E-02  6.512496E-18  0.000000E+00
        80 -9.249989E-02  1.928572E-18  0.000000E+00
        81  0.000000E+00  0.000000E+00  0.000000E+00
        82  0.000000E+00  0.000000E+00  0.000000E+00
        83  0.000000E+00  0.000000E+00  0.000000E+00
        84  0.000000E+00  0.000000E+00  0.000000E+00

 static temperatures for set NALL and time  0.1000000E+01

         1  1.000000E+00
         2  1.130947E+00
         3  1.130947E+00
         4  1.000000E+00
         5  1.000000E+00
         6  1.130947E+00
         7  1.130947E+00
         8  1.000000E+00
         9  1.227589E+00
        10  1.227589E+00
        11  1.227589E+00
        12  1.227589E+00
        13  1.295275E+00
        14  1.295275E+00
        15  1.295275E+00
        16  1.295275E+00
        17  1.338896E+00
        18  1.338896E+00
        19  1.338896E+00
        20  1.338896E+00
        21  1.362889E+00
        22  1.362889E+00
        23  1.362889E+00
        24  1.362889E+00
        25  1.371235E+00
        26  1.371235E+00
        27  1.371235E+00
        28  1.371235E+00
        29  1.367461E+00
        30  1.367461E+00
        31  1.367461E+00
        32  1.367461E+00
        33  1.354644E+00
        34  1.354644E+00
        35  1.354644E+00
        36  1.354644E+00
        37  1.335406E+00
        38  1.335406E+00
        39  1.335406E+00
        40  1.335406E+00
        41  1.311922E+00
        42  1.311922E+00
        43  1.311922E+00
        44  1.311922E+00
        45  1.285913E+00
        46  1.285913E+00
        47  1.285913E+00
        48  1.285913E+00
        49  1.258653E+00
        50  1.258653E+00
        51  1.258653E+00
        52  1.258653E+00
        53  1.230964E+00
        54  1.230964E+00
        55  1.230964E+00
        56  1.230964E+00
        57  1.203222E+00
        58  1.203222E+00
        59  1.203222E+00
        60  1.203222E+00
        61  1.175352E+00
        62  1.175352E+00
        63  1.175352E+00
        64  1.175352E+00
        65  1.146829E+00
        66  1.146829E+00
        67  1.146829E+00
        68  1.146829E+00
        69  1.116680E+00
        70  1.116680E+00
        71  1.116680E+00
        72  1.116680E+00
        73  1.083482E+00
        74  1.083482E+00
        75  1.083482E+00
        76  1.083482E+00
        77  1.045363E+00
        78  1.045363E+00
        79  1.045363E+00
        80  1.045363E+00
        81  1.000000E+00
        82  1.000000E+00
        83  1.000000E+00
        84  1.000000E+00

 viscous stresses (elem, integ.pnt.,sxx,syy,sz    z,sxy,sxz,syz) for set EALL and time  0.1000000E+01

         1   1  6.661338E-15  9.829312E-16  0.000000E+00  3.849998E+00  2.220446E-16 -1.033667E-16
         1   2 -6.661338E-16  9.829312E-16  0.000000E+00  3.849998E+00  3.663736E-15 -3.857700E-16
         1   3 -1.776357E-15  2.112544E-15  0.000000E+00  3.849998E+00 -8.881784E-16 -1.033667E-16
         1   4 -7.549517E-15  2.112544E-15  0.000000E+00  3.849998E+00  3.330669E-15 -3.857700E-16
         1   5  7.549517E-15  9.829312E-16  0.000000E+00  3.849998E+00  8.881784E-16 -1.033667E-16
         1   6 -2.775558E-15  9.829312E-16  0.000000E+00  3.849998E+00  3.552714E-15 -3.857700E-16
         1   7 -1.776357E-15  2.112544E-15  0.000000E+00  3.849998E+00  8.881784E-16 -1.033667E-16
         1   8 -1.154632E-14  2.112544E-15  0.000000E+00  3.849998E+00  3.552714E-15 -3.857700E-16
         2   1 -7.549517E-15  1.613780E-15  0.000000E+00  3.549998E+00  3.552714E-15 -9.066629E-17
         2   2  4.107825E-15  1.613780E-15  0.000000E+00  3.549998E+00  2.609024E-15  9.979751E-16
         2   3  5.329071E-15 -2.740785E-15  0.000000E+00  3.549998E+00  3.552714E-15 -9.066629E-17
         2   4  3.108624E-15 -2.740785E-15  0.000000E+00  3.549998E+00  3.164136E-15  9.979751E-16
         2   5 -4.884981E-15  1.613780E-15  0.000000E+00  3.549998E+00  3.552714E-15 -9.066629E-17
         2   6  5.218048E-15  1.613780E-15  0.000000E+00  3.549998E+00  3.108624E-15  9.979751E-16
         2   7  7.105427E-15 -2.740785E-15  0.000000E+00  3.549998E+00  3.552714E-15 -9.066629E-17
         2   8  5.773160E-15 -2.740785E-15  0.000000E+00  3.549998E+00  3.330669E-15  9.979751E-16
         3   1 -1.332268E-15  1.090950E-15  0.000000E+00  3.249998E+00  5.551115E-15  1.704593E-15
         3   2 -4.218847E-15  1.090950E-15  0.000000E+00  3.249998E+00  5.051515E-15  2.546467E-15
         3   3  0.000000E+00 -2.276547E-15  0.000000E+00  3.249998E+00  5.551115E-15  1.704593E-15
         3   4  8.437695E-15 -2.276547E-15  0.000000E+00  3.249998E+00  4.829470E-15  2.546467E-15
         3   5 -1.332268E-15  1.090950E-15  0.000000E+00  3.249998E+00  5.329071E-15  1.704593E-15
         3   6 -1.887379E-15  1.090950E-15  0.000000E+00  3.249998E+00  5.107026E-15  2.546467E-15
         3   7  0.000000E+00 -2.276547E-15  0.000000E+00  3.249998E+00  5.329071E-15  1.704593E-15
         3   8  7.549517E-15 -2.276547E-15  0.000000E+00  3.249998E+00  5.773160E-15  2.546467E-15
         4   1 -2.886580E-15  1.894936E-15  0.000000E+00  2.949998E+00  6.772360E-15  2.954240E-15
         4   2 -2.886580E-15  1.894936E-15  0.000000E+00  2.949998E+00  7.521761E-15  3.226422E-15
         4   3  8.881784E-16  8.062074E-16  0.000000E+00  2.949998E+00  6.772360E-15  2.954240E-15
         4   4  4.440892E-16  8.062074E-16  0.000000E+00  2.949998E+00  7.466250E-15  3.226422E-15
         4   5 -1.332268E-15  1.894936E-15  0.000000E+00  2.949998E+00  7.105427E-15  2.954240E-15
         4   6 -4.163336E-15  1.894936E-15  0.000000E+00  2.949998E+00  7.771561E-15  3.226422E-15
         4   7  8.881784E-16  8.062074E-16  0.000000E+00  2.949998E+00  6.661338E-15  2.954240E-15
         4   8  4.440892E-16  8.062074E-16  0.000000E+00  2.949998E+00  7.771561E-15  3.226422E-15
         5   1  1.998401E-15 -2.110257E-15  0.000000E+00  2.649998E+00  7.105427E-15  2.931370E-15
         5   2  5.717649E-15 -2.110257E-15  0.000000E+00  2.649998E+00  6.938894E-15  1.853091E-15
         5   3 -2.664535E-15  2.202858E-15  0.000000E+00  2.649998E+00  6.994405E-15  2.931370E-15
         5   4 -4.440892E-15  2.202858E-15  0.000000E+00  2.649998E+00  7.022161E-15  1.853091E-15
         5   5  1.998401E-15 -2.110257E-15  0.000000E+00  2.649998E+00  6.217249E-15  2.931370E-15
         5   6  5.606626E-15 -2.110257E-15  0.000000E+00  2.649998E+00  6.772360E-15  1.853091E-15
         5   7 -3.108624E-15  2.202858E-15  0.000000E+00  2.649998E+00  6.439294E-15  2.931370E-15
         5   8 -4.440892E-15  2.202858E-15  0.000000E+00  2.649998E+00  6.883383E-15  1.853091E-15
         6   1 -2.331468E-15  3.439075E-16  0.000000E+00  2.349999E+00  9.270362E-15  1.307700E-15
         6   2  1.831868E-15  3.439075E-16  0.000000E+00  2.349999E+00  1.082467E-14  8.959412E-16
         6   3 -2.220446E-15  1.990942E-15  0.000000E+00  2.349999E+00  9.325873E-15  1.307700E-15
         6   4 -2.886580E-15  1.990942E-15  0.000000E+00  2.349999E+00  1.082467E-14  8.959412E-16
         6   5 -2.664535E-15  3.439075E-16  0.000000E+00  2.349999E+00  9.325873E-15  1.307700E-15
         6   6  1.859624E-15  3.439075E-16  0.000000E+00  2.349999E+00  1.065814E-14  8.959412E-16
         6   7 -2.664535E-15  1.990942E-15  0.000000E+00  2.349999E+00  9.325873E-15  1.307700E-15
         6   8 -2.442491E-15  1.990942E-15  0.000000E+00  2.349999E+00  1.054712E-14  8.959412E-16
         7   1 -1.137979E-15 -7.533961E-16  0.000000E+00  2.049999E+00  9.714451E-15  5.822699E-16
         7   2  2.026157E-15 -7.533961E-16  0.000000E+00  2.049999E+00  9.048318E-15  1.370625E-16
         7   3 -1.110223E-16  1.027433E-15  0.000000E+00  2.049999E+00  9.714451E-15  5.822699E-16
         7   4 -3.386180E-15  1.027433E-15  0.000000E+00  2.049999E+00  9.055257E-15  1.370625E-16
         7   5 -1.221245E-15 -7.533961E-16  0.000000E+00  2.049999E+00  9.714451E-15  5.822699E-16
         7   6  1.984524E-15 -7.533961E-16  0.000000E+00  2.049999E+00  8.923418E-15  1.370625E-16
         7   7  0.000000E+00  1.027433E-15  0.000000E+00  2.049999E+00  9.658940E-15  5.822699E-16
         7   8 -3.469447E-15  1.027433E-15  0.000000E+00  2.049999E+00  8.909540E-15  1.370625E-16
         8   1 -3.885781E-16  1.523671E-16  0.000000E+00  1.749999E+00  8.847090E-15  7.856182E-17
         8   2 -5.689893E-16  1.523671E-16  0.000000E+00  1.749999E+00  7.925952E-15  3.639424E-16
         8   3  3.830269E-15 -9.891553E-16  0.000000E+00  1.749999E+00  8.867906E-15  7.856182E-17
         8   4  2.983724E-15 -9.891553E-16  0.000000E+00  1.749999E+00  7.858297E-15  3.639424E-16
         8   5 -5.689893E-16  1.523671E-16  0.000000E+00  1.749999E+00  9.103829E-15  7.856182E-17
         8   6 -3.851086E-16  1.523671E-16  0.000000E+00  1.749999E+00  9.048318E-15  3.639424E-16
         8   7  3.941292E-15 -9.891553E-16  0.000000E+00  1.749999E+00  9.103829E-15  7.856182E-17
         8   8  2.345346E-15 -9.891553E-16  0.000000E+00  1.749999E+00  9.034440E-15  3.639424E-16
         9   1 -1.110223E-16 -6.294079E-16  0.000000E+00  1.449999E+00  7.605028E-15  4.319306E-16
         9   2 -4.163336E-17 -6.294079E-16  0.000000E+00  1.449999E+00  6.626644E-15  3.322973E-16
         9   3  0.000000E+00 -2.308746E-16  0.000000E+00  1.449999E+00  7.605028E-15  4.319306E-16
         9   4 -9.992007E-16 -2.308746E-16  0.000000E+00  1.449999E+00  6.696033E-15  3.322973E-16
         9   5 -3.885781E-16 -6.294079E-16  0.000000E+00  1.449999E+00  7.549517E-15  4.319306E-16
         9   6 -4.163336E-17 -6.294079E-16  0.000000E+00  1.449999E+00  6.716849E-15  3.322973E-16
         9   7  0.000000E+00 -2.308746E-16  0.000000E+00  1.449999E+00  7.549517E-15  4.319306E-16
         9   8  2.220446E-16 -2.308746E-16  0.000000E+00  1.449999E+00  6.772360E-15  3.322973E-16
        10   1 -1.110223E-15 -4.023023E-18  0.000000E+00  1.150000E+00  6.161738E-15  2.731710E-16
        10   2  3.053113E-16 -4.023023E-18  0.000000E+00  1.150000E+00  5.370704E-15  2.112682E-16
        10   3 -8.881784E-16  2.435880E-16  0.000000E+00  1.150000E+00  6.161738E-15  2.731710E-16
        10   4  1.110223E-16  2.435880E-16  0.000000E+00  1.150000E+00  5.398459E-15  2.112682E-16
        10   5 -8.881784E-16 -4.023023E-18  0.000000E+00  1.150000E+00  6.217249E-15  2.731710E-16
        10   6 -5.828671E-16 -4.023023E-18  0.000000E+00  1.150000E+00  5.051515E-15  2.112682E-16
        10   7  0.000000E+00  2.435880E-16  0.000000E+00  1.150000E+00  6.217249E-15  2.731710E-16
        10   8 -8.881784E-16  2.435880E-16  0.000000E+00  1.150000E+00  5.107026E-15  2.112682E-16
        11   1 -4.440892E-16 -3.356873E-16  0.000000E+00  8.500002E-01  4.940492E-15  1.470218E-16
        11   2 -1.110223E-16 -3.356873E-16  0.000000E+00  8.500002E-01  4.066192E-15  3.340012E-17
        11   3 -8.881784E-16  1.187995E-16  0.000000E+00  8.500002E-01  4.940492E-15  1.470218E-16
        11   4 -5.551115E-16  1.187995E-16  0.000000E+00  8.500002E-01  3.927414E-15  3.340012E-17
        11   5 -1.110223E-16 -3.356873E-16  0.000000E+00  8.500002E-01  4.884981E-15  1.470218E-16
        11   6  9.436896E-16 -3.356873E-16  0.000000E+00  8.500002E-01  4.052314E-15  3.340012E-17
        11   7 -8.881784E-16  1.187995E-16  0.000000E+00  8.500002E-01  4.884981E-15  1.470218E-16
        11   8  0.000000E+00  1.187995E-16  0.000000E+00  8.500002E-01  3.996803E-15  3.340012E-17
        12   1 -5.551115E-16 -2.791264E-16  0.000000E+00  5.500005E-01  3.386180E-15  1.291637E-17
        12   2 -3.330669E-16 -2.791264E-16  0.000000E+00  5.500005E-01  2.747802E-15  7.057542E-17
        12   3  0.000000E+00 -5.097626E-16  0.000000E+00  5.500005E-01  2.886580E-15  1.291637E-17
        12   4  1.110223E-15 -5.097626E-16  0.000000E+00  5.500005E-01  2.414735E-15  7.057542E-17
        12   5  4.440892E-16 -2.791264E-16  0.000000E+00  5.500005E-01  3.108624E-15  1.291637E-17
        12   6 -1.054712E-15 -2.791264E-16  0.000000E+00  5.500005E-01  2.053913E-15  7.057542E-17
        12   7  0.000000E+00 -5.097626E-16  0.000000E+00  5.500005E-01  3.108624E-15  1.291637E-17
        12   8  1.332268E-15 -5.097626E-16  0.000000E+00  5.500005E-01  2.220446E-15  7.057542E-17
        13   1 -6.661338E-16 -5.677941E-16  0.000000E+00  2.500008E-01  1.998401E-15  8.814036E-17
        13   2  2.220446E-16 -5.677941E-16  0.000000E+00  2.500008E-01  1.804112E-15  7.846962E-17
        13   3 -4.440892E-16 -5.291111E-16  0.000000E+00  2.500008E-01  1.998401E-15  8.814036E-17
        13   4  6.661338E-16 -5.291111E-16  0.000000E+00  2.500008E-01  1.360023E-15  7.846962E-17
        13   5 -8.881784E-16 -5.677941E-16  0.000000E+00  2.500008E-01  1.998401E-15  8.814036E-17
        13   6 -1.443290E-15 -5.677941E-16  0.000000E+00  2.500008E-01  1.887379E-15  7.846962E-17
        13   7 -4.440892E-16 -5.291111E-16  0.000000E+00  2.500008E-01  1.998401E-15  8.814036E-17
        13   8  6.661338E-16 -5.291111E-16  0.000000E+00  2.500008E-01  1.443290E-15  7.846962E-17
        14   1  0.000000E+00 -5.562263E-16  0.000000E+00 -4.999886E-02  1.110223E-15  6.002709E-17
        14   2 -7.216450E-16 -5.562263E-16  0.000000E+00 -4.999886E-02  2.498002E-16  1.931189E-17
        14   3 -8.881784E-16 -3.933655E-16  0.000000E+00 -4.999886E-02  9.992007E-16  6.002709E-17
        14   4  2.220446E-16 -3.933655E-16  0.000000E+00 -4.999886E-02  3.885781E-16  1.931189E-17
        14   5  2.220446E-16 -5.562263E-16  0.000000E+00 -4.999886E-02  8.881784E-16  6.002709E-17
        14   6 -5.551115E-17 -5.562263E-16  0.000000E+00 -4.999886E-02  3.330669E-16  1.931189E-17
        14   7  0.000000E+00 -3.933655E-16  0.000000E+00 -4.999886E-02  1.332268E-15  6.002709E-17
        14   8  4.440892E-16 -3.933655E-16  0.000000E+00 -4.999886E-02  6.661338E-16  1.931189E-17
        15   1  4.440892E-16 -4.843977E-16  0.000000E+00 -3.499986E-01  0.000000E+00  6.072473E-18
        15   2  2.775558E-16 -4.843977E-16  0.000000E+00 -3.499986E-01 -6.106227E-16  1.061692E-17
        15   3  0.000000E+00 -5.025755E-16  0.000000E+00 -3.499986E-01  0.000000E+00  6.072473E-18
        15   4  2.220446E-16 -5.025755E-16  0.000000E+00 -3.499986E-01 -2.220446E-16  1.061692E-17
        15   5  0.000000E+00 -4.843977E-16  0.000000E+00 -3.499986E-01  0.000000E+00  6.072473E-18
        15   6 -2.775558E-16 -4.843977E-16  0.000000E+00 -3.499986E-01 -5.551115E-16  1.061692E-17
        15   7  0.000000E+00 -5.025755E-16  0.000000E+00 -3.499986E-01  0.000000E+00  6.072473E-18
        15   8  1.110223E-15 -5.025755E-16  0.000000E+00 -3.499986E-01 -5.551115E-16  1.061692E-17
        16   1  6.661338E-16 -4.888507E-16  0.000000E+00 -6.499983E-01 -1.110223E-16  1.061757E-17
        16   2 -2.775558E-16 -4.888507E-16  0.000000E+00 -6.499983E-01 -1.110223E-16  6.074882E-18
        16   3  0.000000E+00 -4.706800E-16  0.000000E+00 -6.499983E-01 -1.110223E-16  1.061757E-17
        16   4  2.220446E-16 -4.706800E-16  0.000000E+00 -6.499983E-01 -2.775558E-16  6.074882E-18
        16   5  4.440892E-16 -4.888507E-16  0.000000E+00 -6.499983E-01 -4.440892E-16  1.061757E-17
        16   6 -2.220446E-16 -4.888507E-16  0.000000E+00 -6.499983E-01 -1.110223E-16  6.074882E-18
        16   7  0.000000E+00 -4.706800E-16  0.000000E+00 -6.499983E-01 -4.440892E-16  1.061757E-17
        16   8  2.220446E-16 -4.706800E-16  0.000000E+00 -6.499983E-01 -1.110223E-16  6.074882E-18
        17   1  4.440892E-16 -1.650974E-16  0.000000E+00 -9.499981E-01  0.000000E+00  6.522954E-19
        17   2 -6.661338E-16 -1.650974E-16  0.000000E+00 -9.499981E-01  3.330669E-16 -9.619799E-18
        17   3  0.000000E+00 -1.240090E-16  0.000000E+00 -9.499981E-01  0.000000E+00  6.522954E-19
        17   4 -4.440892E-16 -1.240090E-16  0.000000E+00 -9.499981E-01  6.383782E-16 -9.619799E-18
        17   5  5.551115E-16 -1.650974E-16  0.000000E+00 -9.499981E-01  0.000000E+00  6.522954E-19
        17   6 -6.106227E-16 -1.650974E-16  0.000000E+00 -9.499981E-01  2.220446E-16 -9.619799E-18
        17   7  0.000000E+00 -1.240090E-16  0.000000E+00 -9.499981E-01  0.000000E+00  6.522954E-19
        17   8 -1.665335E-15 -1.240090E-16  0.000000E+00 -9.499981E-01  3.885781E-16 -9.619799E-18
        18   1  5.551115E-16 -1.454805E-16  0.000000E+00 -1.249998E+00 -1.665335E-16 -1.906339E-17
        18   2 -2.498002E-16 -1.454805E-16  0.000000E+00 -1.249998E+00 -1.110223E-16 -3.459168E-17
        18   3  0.000000E+00 -8.336733E-17  0.000000E+00 -1.249998E+00 -1.665335E-16 -1.906339E-17
        18   4  2.220446E-16 -8.336733E-17  0.000000E+00 -1.249998E+00 -1.249001E-16 -3.459168E-17
        18   5  0.000000E+00 -1.454805E-16  0.000000E+00 -1.249998E+00 -2.220446E-16 -1.906339E-17
        18   6 -1.665335E-16 -1.454805E-16  0.000000E+00 -1.249998E+00 -1.110223E-16 -3.459168E-17
        18   7  0.000000E+00 -8.336733E-17  0.000000E+00 -1.249998E+00 -2.220446E-16 -1.906339E-17
        18   8  3.330669E-16 -8.336733E-17  0.000000E+00 -1.249998E+00 -1.665335E-16 -3.459168E-17
        19   1 -2.220446E-16  2.191207E-16  0.000000E+00 -1.549998E+00 -5.551115E-17 -4.145120E-17
        19   2 -2.775558E-16  2.191207E-16  0.000000E+00 -1.549998E+00  2.775558E-17 -4.466347E-17
        19   3  4.440892E-16  2.319698E-16  0.000000E+00 -1.549998E+00 -5.551115E-17 -4.145120E-17
        19   4 -3.330669E-16  2.319698E-16  0.000000E+00 -1.549998E+00 -2.775558E-17 -4.466347E-17
        19   5 -2.220446E-16  2.191207E-16  0.000000E+00 -1.549998E+00  0.000000E+00 -4.145120E-17
        19   6 -8.326673E-17  2.191207E-16  0.000000E+00 -1.549998E+00  0.000000E+00 -4.466347E-17
        19   7  4.440892E-16  2.319698E-16  0.000000E+00 -1.549998E+00  0.000000E+00 -4.145120E-17
        19   8  1.110223E-16  2.319698E-16  0.000000E+00 -1.549998E+00  5.551115E-17 -4.466347E-17
        20   1  5.551115E-17  2.217520E-16  0.000000E+00 -1.849998E+00  0.000000E+00 -3.615227E-17
        20   2 -1.387779E-17  2.217520E-16  0.000000E+00 -1.849998E+00  0.000000E+00 -9.686973E-18
        20   3  0.000000E+00  1.158908E-16  0.000000E+00 -1.849998E+00  0.000000E+00 -3.615227E-17
        20   4  0.000000E+00  1.158908E-16  0.000000E+00 -1.849998E+00  6.938894E-18 -9.686973E-18
        20   5  5.551115E-17  2.217520E-16  0.000000E+00 -1.849998E+00  0.000000E+00 -3.615227E-17
        20   6 -1.387779E-17  2.217520E-16  0.000000E+00 -1.849998E+00  0.000000E+00 -9.686973E-18
        20   7  0.000000E+00  1.158908E-16  0.000000E+00 -1.849998E+00  0.000000E+00 -3.615227E-17
        20   8 -5.551115E-17  1.158908E-16  0.000000E+00 -1.849998E+00  0.000000E+00 -9.686973E-18
